 vasp.5.4.4.18Apr17-6-g9f103f2a35 (build Jan 19 2018 17:03:37) complex

 executed on             LinuxIFC date 2018.03.21  16:52:21

 INCAR:
 POTCAR:   PAW_PBE H 15Jun2001
 POTCAR:   PAW_PBE Pb 08Apr2002
 POTCAR:   PAW_PBE C_s 06Sep2000
 POTCAR:   PAW_PBE I 08Apr2002
 POTCAR:   PAW_PBE N 08Apr2002

 POTCAR:   PAW_PBE H 15Jun2001
   VRHFIN =H: ultrasoft test

   TITEL  = PAW_PBE H 15Jun2001
   POMASS =    1.000; ZVAL   =    1.000    mass and valenz
   ENMAX  =  250.000; ENMIN  =  200.000 eV
   QCUT   =   -5.749; QGAM   =   11.498    optimization parameters

   Description
     l     E      TYP  RCUT    TYP  RCUT
     0   .000     23  1.100
     0   .500     23  1.100
     1  -.300     23  1.100

 POTCAR:   PAW_PBE Pb 08Apr2002
   VRHFIN =Pb:

   TITEL  = PAW_PBE Pb 08Apr2002
   POMASS =  207.200; ZVAL   =    4.000    mass and valenz
   ENMAX  =   97.973; ENMIN  =   73.480 eV
   QCUT   =   -2.683; QGAM   =    5.367    optimization parameters

[...]

 POTCAR:   PAW_PBE C_s 06Sep2000
   VRHFIN =C: s2p2

   TITEL  = PAW_PBE C_s 06Sep2000
   POMASS =   12.011; ZVAL   =    4.000    mass and valenz
   ENMAX  =  273.901; ENMIN  =  205.426 eV
   QCUT   =   -4.487; QGAM   =    8.974    optimization parameters

[...]

 POTCAR:   PAW_PBE I 08Apr2002
   VRHFIN =I : s2p5

[...]

 POTCAR:   PAW_PBE N 08Apr2002
   VRHFIN =N: s2p3

   TITEL  = PAW_PBE N 08Apr2002
   POMASS =   14.001; ZVAL   =    5.000    mass and valenz
   ENMAX  =  400.000; ENMIN  =  300.000 eV
   QCUT   =   -5.562; QGAM   =   11.124    optimization parameters

   Description
     l     E      TYP  RCUT    TYP  RCUT
     0   .000     23  1.200
     0   .000     23  1.200
     1   .000     23  1.500
     1   .700     23  1.500
     2   .000      7  1.500

 Optimization of the real space projectors (new method)

 maximal supplied QI-value         = 34.20
 optimisation between [QCUT,QGAM] = [  9.92, 20.18] = [ 27.55,114.04] Ry
 Optimized for a Real-space Cutoff    1.34 Angstroem

   l    n(q)    QCUT    max X(q) W(low)/X(q) W(high)/X(q)  e(spline)
   0      8     9.919     4.436    0.31E-04    0.59E-04    0.66E-07
   0      8     9.919    16.131    0.16E-03    0.20E-03    0.35E-06
   1      8     9.919     4.654    0.19E-03    0.46E-03    0.40E-06
 Optimization of the real space projectors (new method)

[...]

   l    n(q)    QCUT    max X(q) W(low)/X(q) W(high)/X(q)  e(spline)
   0      9    10.239     6.350    0.16E-04    0.55E-05    0.44E-08
   0      9    10.239    79.378    0.80E-04    0.11E-03    0.78E-07
   1      8    10.239     4.566    0.21E-04    0.12E-04    0.22E-07
   1      8    10.239    71.978    0.25E-03    0.30E-03    0.73E-07
   2      8    10.239     4.877    0.44E-04    0.81E-04    0.46E-07
 Optimization of the real space projectors (new method)

 maximal supplied QI-value         = 25.13
 optimisation between [QCUT,QGAM] = [ 10.05, 20.36] = [ 28.30,116.06] Ry
 Optimized for a Real-space Cutoff    1.70 Angstroem

   l    n(q)    QCUT    max X(q) W(low)/X(q) W(high)/X(q)  e(spline)
   0     10    10.053     4.511    0.26E-04    0.81E-05    0.18E-06
   0     10    10.053    37.799    0.60E-04    0.98E-04    0.61E-06
   1     10    10.053     2.478    0.79E-05    0.19E-04    0.19E-06
   1     10    10.053     4.765    0.18E-03    0.77E-03    0.49E-05
 PAW_PBE H 15Jun2001                    :
 PAW_PBE Pb 08Apr2002                   :
 PAW_PBE C_s 06Sep2000                  :
 PAW_PBE I 08Apr2002                    :
 PAW_PBE N 08Apr2002                    :

 POSCAR: CH3PbI3 tetragonal
  positions in direct lattice
  velocities in cartesian coordinates
 exchange correlation table for  LEXCH =        8
   RHO(1)=    0.500       N(1)  =     2000
   RHO(2)=  100.500       N(2)  =     4000

 VTST: version 3.1, (03/28/14)

 CHAIN: initializing optimizer

 OPT: Using VASP Dynamics algorithm
 CHAIN: Read ICHAIN            0

 POSCAR: CH3PbI3 tetragonal
  positions in direct lattice
  velocities in cartesian coordinates

 ion  position               nearest neighbor table
   1  0.499  0.995  0.840-  30 1.09
   2  0.526  0.861  0.735-  30 1.10
   3  0.374  0.995  0.728-  30 1.10
   4  0.589  0.071  0.619-  46 1.03
   5  0.560  0.198  0.715-  46 1.04
   6  0.705  0.074  0.723-  46 1.04
   7  0.000  0.518  0.630-  32 1.09
   8  0.991  0.675  0.720-  32 1.10
   9  0.842  0.536  0.719-  32 1.10
  10  0.015  0.495  0.864-  48 1.04
  11  0.027  0.347  0.781-  48 1.04
  12  0.165  0.478  0.783-  48 1.04
  13  0.482  1.000  0.130-  29 1.09
  14  0.464  0.158  0.219-  29 1.10
  15  0.325  0.009  0.220-  29 1.10
  16  0.505  0.985  0.364-  45 1.04
  17  0.522  0.835  0.283-  45 1.04
  18  0.653  0.973  0.281-  45 1.04
  19  0.005  0.501  0.340-  31 1.09
  20  0.005  0.626  0.228-  31 1.10
  21  0.139  0.474  0.235-  31 1.10
  22  0.929  0.411  0.119-  47 1.03
  23  0.926  0.295  0.223-  47 1.04
  24  0.802  0.440  0.215-  47 1.04
  25  0.001  0.983  0.990-  35 3.12  36 3.20  34 3.20  33 3.21  43 3.21  41 3.22
  26  0.499  0.491  0.990-  35 3.13  34 3.18  44 3.19  33 3.20  36 3.21  42 3.22
  27  0.017  0.999  0.490-  38 3.12  37 3.20  39 3.20  40 3.21  41 3.21  43 3.22
  28  0.509  0.501  0.490-  38 3.13  39 3.18  42 3.19  40 3.20  37 3.21  44 3.22
  29  0.446  0.036  0.208-  13 1.09  14 1.10  15 1.10  45 1.49
  30  0.490  0.976  0.755-   1 1.09   2 1.10   3 1.10  46 1.49
  31  0.024  0.510  0.255-  19 1.09  21 1.10  20 1.10  47 1.49
  32  0.964  0.554  0.708-   7 1.09   9 1.10   8 1.10  48 1.49
  33  0.205  0.282  0.020-  26 3.20  25 3.21
  34  0.706  0.195  0.982-  26 3.18  25 3.20
  35  0.291  0.779  0.978-  25 3.12  26 3.13
  36  0.815  0.671  0.976-  25 3.20  26 3.21
  37  0.329  0.185  0.476-  27 3.20  28 3.21
  38  0.221  0.709  0.478-  27 3.12  28 3.13
  39  0.805  0.294  0.482-  28 3.18  27 3.20
  40  0.718  0.795  0.520-  28 3.20  27 3.21
  41  0.948  0.991  0.241-  27 3.21  25 3.22
  42  0.528  0.540  0.241-  28 3.19  26 3.22
  43  0.009  0.052  0.741-  25 3.21  27 3.22
  44  0.460  0.472  0.741-  26 3.19  28 3.22
  45  0.537  0.952  0.289-  16 1.04  17 1.04  18 1.04  29 1.49
  46  0.592  0.086  0.700-   4 1.03   6 1.04   5 1.04  30 1.49
  47  0.914  0.408  0.200-  22 1.03  23 1.04  24 1.04  31 1.49
  48  0.048  0.463  0.789-  10 1.04  12 1.04  11 1.04  32 1.49

  LATTYP: Found a simple tetragonal cell.
 ALAT       =     8.8009004593
 C/A-ratio  =     1.4414093734

  Lattice vectors:

 A1 = (   8.8009004593,   0.0000000000,   0.0000000000)
 A2 = (   0.0000000000,   8.8009004593,   0.0000000000)
 A3 = (   0.0000000000,   0.0000000000,  12.6857004166)

Analysis of symmetry for initial positions (statically):
 Subroutine PRICEL returns:
 Original cell was already a primitive cell.

 Routine SETGRP: Setting up the symmetry group for a
 simple tetragonal supercell.

 Subroutine GETGRP returns: Found  2 space group operations
 (whereof  1 operations were pure point group operations)
 out of a pool of 16 trial point group operations.

The static configuration has the point symmetry C_1 .
 The point group associated with its full space group is C_1h.

Analysis of symmetry for dynamics (positions and initial velocities):
 Subroutine PRICEL returns:
 Original cell was already a primitive cell.

 Routine SETGRP: Setting up the symmetry group for a
 simple tetragonal supercell.

 Subroutine GETGRP returns: Found  2 space group operations
 (whereof  1 operations were pure point group operations)
 out of a pool of 16 trial point group operations.

The dynamic configuration has the point symmetry C_1 .
 The point group associated with its full space group is C_1h.

 Subroutine INISYM returns: Found  2 space group operations
 (whereof  1 operations are pure point group operations),
 and found     1 'primitive' translations

 KPOINTS: Automatic Mesh

Automatic generation of k-mesh.
Space group operators:
 irot       det(A)        alpha          n_x          n_y          n_z        tau_x        tau_y        tau_z
    1     1.000000     0.000000     1.000000     0.000000     0.000000     0.000000     0.000000     0.000000
    2    -1.000000   180.000000     0.707107     0.707107     0.000000     0.000000     0.000000     0.500000

 Subroutine IBZKPT returns following result:

 Found    100 irreducible k-points:

 Following reciprocal coordinates:
            Coordinates               Weight
  0.000000  0.000000  0.000000      1.000000
  0.142857  0.000000  0.000000      4.000000
  0.285714  0.000000  0.000000      4.000000
  0.428571  0.000000  0.000000      4.000000
  0.142857  0.142857  0.000000      2.000000
  0.285714  0.142857  0.000000      4.000000
  0.428571  0.142857  0.000000      4.000000
 -0.428571  0.142857  0.000000      4.000000
 -0.285714  0.142857  0.000000      4.000000
 -0.142857  0.142857  0.000000      2.000000
  0.285714  0.285714  0.000000      2.000000
  0.428571  0.285714  0.000000      4.000000
 -0.428571  0.285714  0.000000      4.000000
 -0.285714  0.285714  0.000000      2.000000
  0.428571  0.428571  0.000000      2.000000
 -0.428571  0.428571  0.000000      2.000000
  0.000000  0.000000  0.142857      2.000000
  0.142857  0.000000  0.142857      4.000000
  0.285714  0.000000  0.142857      4.000000
  0.428571  0.000000  0.142857      4.000000
 -0.428571  0.000000  0.142857      4.000000
 -0.285714  0.000000  0.142857      4.000000
 -0.142857  0.000000  0.142857      4.000000
  0.142857  0.142857  0.142857      4.000000
  0.285714  0.142857  0.142857      4.000000
  0.428571  0.142857  0.142857      4.000000
 -0.428571  0.142857  0.142857      4.000000
 -0.285714  0.142857  0.142857      4.000000
 -0.142857  0.142857  0.142857      2.000000
  0.142857  0.285714  0.142857      4.000000
  0.285714  0.285714  0.142857      4.000000
  0.428571  0.285714  0.142857      4.000000
 -0.428571  0.285714  0.142857      4.000000
 -0.285714  0.285714  0.142857      2.000000
  0.142857  0.428571  0.142857      4.000000
  0.285714  0.428571  0.142857      4.000000
  0.428571  0.428571  0.142857      4.000000
 -0.428571  0.428571  0.142857      2.000000
  0.142857 -0.428571  0.142857      4.000000
  0.285714 -0.428571  0.142857      4.000000
  0.428571 -0.428571  0.142857      2.000000
  0.142857 -0.285714  0.142857      4.000000
  0.285714 -0.285714  0.142857      2.000000
  0.142857 -0.142857  0.142857      2.000000
  0.000000  0.000000  0.285714      2.000000
  0.142857  0.000000  0.285714      4.000000
  0.285714  0.000000  0.285714      4.000000
  0.428571  0.000000  0.285714      4.000000
 -0.428571  0.000000  0.285714      4.000000
 -0.285714  0.000000  0.285714      4.000000
 -0.142857  0.000000  0.285714      4.000000
  0.142857  0.142857  0.285714      4.000000
  0.285714  0.142857  0.285714      4.000000
  0.428571  0.142857  0.285714      4.000000
 -0.428571  0.142857  0.285714      4.000000
 -0.285714  0.142857  0.285714      4.000000
 -0.142857  0.142857  0.285714      2.000000
  0.142857  0.285714  0.285714      4.000000
  0.285714  0.285714  0.285714      4.000000
  0.428571  0.285714  0.285714      4.000000
[...]
  0.142857  0.285714  0.428571      4.000000
  0.285714  0.285714  0.428571      4.000000
  0.428571  0.285714  0.428571      4.000000
 -0.428571  0.285714  0.428571      4.000000
[...]
    6        0.607   0.076   0.000   0.683
    7        0.640   0.047   0.000   0.687
    8        0.641   0.046   0.000   0.687
    9        0.641   0.046   0.000   0.687
   10        0.607   0.076   0.000   0.683
   11        0.606   0.076   0.000   0.681
   12        0.606   0.076   0.000   0.682
   13        0.640   0.047   0.000   0.687
   14        0.641   0.046   0.000   0.687
   15        0.641   0.046   0.000   0.687
   16        0.607   0.076   0.000   0.683
   17        0.606   0.076   0.000   0.683
   18        0.605   0.076   0.000   0.681
   19        0.639   0.047   0.000   0.687
   20        0.640   0.046   0.000   0.686
   21        0.640   0.046   0.000   0.686
   22        0.613   0.077   0.000   0.689
   23        0.607   0.076   0.000   0.683
   24        0.604   0.076   0.000   0.681
   25        1.808   0.916   0.110   2.834
   26        1.808   0.924   0.112   2.845
   27        1.808   0.917   0.110   2.836
   28        1.808   0.923   0.112   2.844
   29        1.330   2.908   0.000   4.238
   30        1.329   2.910   0.000   4.239
   31        1.329   2.909   0.000   4.239
   32        1.330   2.908   0.000   4.238
   33        1.505   2.808   0.007   4.320
   34        1.506   2.806   0.007   4.320
   35        1.507   2.803   0.008   4.317
   36        1.505   2.804   0.007   4.316
   37        1.505   2.804   0.007   4.316
   38        1.507   2.803   0.008   4.318
   39        1.506   2.806   0.007   4.319
   40        1.505   2.808   0.007   4.320
   41        1.506   2.805   0.008   4.318
   42        1.506   2.808   0.008   4.322
   43        1.506   2.805   0.008   4.319
   44        1.506   2.808   0.008   4.321
   45        1.234   2.736   0.000   3.970
   46        1.234   2.736   0.000   3.971
   47        1.234   2.736   0.000   3.971
   48        1.234   2.736   0.000   3.969
tot         50.523  61.396   0.533 112.453

  FORCE on cell =-STRESS in cart. coord.  units (eV):
  Direction    XX          YY          ZZ          XY          YZ          ZX
  Alpha Z    83.34627    83.34627    83.34627
  Ewald   -1453.20688 -1453.20733 -1336.99962   -39.29602   -59.59475    59.59473
  Hartree   545.64376   545.64376   658.32773    -7.00244   -46.50035    46.50035
  E(xc)    -615.52582  -615.52582  -615.54863    -0.05002     0.16713    -0.16713
  Local   -1700.09242 -1700.09213 -1933.64121    42.45617   108.72500  -108.72496
  n-local  1768.26849  1769.01551  1767.38844    -0.83762    -0.81328     0.85414
  augment  -470.47682  -470.47682  -471.39291    -0.70740     0.92228    -0.92218
  Kinetic  1843.79513  1845.15774  1853.47136     4.93970    -3.02775     2.94742
  Fock        0.00000     0.00000     0.00000     0.00000     0.00000     0.00000
  Total       2.80646     2.80646     4.95143    -0.49776    -0.10204     0.10204
  in kB       4.57616     4.57616     8.07370    -0.81163    -0.16639     0.16639

 VOLUME and BASIS-vectors are now :
  energy-cutoff  :      400.00
  volume of cell :      982.58
      direct lattice vectors                 reciprocal lattice vectors
     8.800900459  0.000000000  0.000000000     0.113624737  0.000000000  0.000000000
     0.000000000  8.800900459  0.000000000     0.000000000  0.113624737  0.000000000
     0.000000000  0.000000000 12.685700417     0.000000000  0.000000000  0.078828915

  length of vectors
     8.800900459  8.800900459 12.685700417     0.113624737  0.113624737  0.078828915

 FORCES acting on ions
    electron-ion (+dipol)            ewald-force                    non-local-force                 convergence-correction
   0.310E+01 0.232E+00 -.542E+02   -.280E+01 0.539E+00 0.600E+02   -.303E+00 -.768E+00 -.583E+01   0.551E-03 0.532E-03 0.729E-05
   -.772E+01 0.548E+02 0.528E+01   0.929E+01 -.602E+02 -.655E+01   -.157E+01 0.548E+01 0.127E+01   0.633E-03 0.816E-04 -.206E-03
   0.545E+02 0.159E+00 0.108E+02   -.600E+02 0.626E+00 -.125E+02   0.552E+01 -.782E+00 0.169E+01   0.690E-05 0.609E-03 -.307E-03
   0.417E+00 0.598E+01 0.667E+02   -.591E+00 -.697E+01 -.740E+02   0.170E+00 0.967E+00 0.720E+01   0.255E-03 0.691E-03 0.290E-02
   0.152E+02 -.626E+02 -.108E+02   -.171E+02 0.693E+02 0.122E+02   0.192E+01 -.656E+01 -.129E+01   0.113E-02 -.247E-02 -.481E-03
   -.634E+02 0.486E+01 -.182E+02   0.703E+02 -.557E+01 0.202E+02   -.674E+01 0.703E+00 -.199E+01   -.252E-02 0.651E-03 -.695E-03
   -.124E+02 0.100E+02 0.523E+02   0.140E+02 -.116E+02 -.578E+02   -.157E+01 0.159E+01 0.545E+01   0.144E-03 -.604E-03 0.598E-03
   -.861E+01 -.546E+02 -.751E+00   0.976E+01 0.603E+02 0.143E+01   -.115E+01 -.568E+01 -.672E+00   0.944E-04 -.368E-03 0.466E-03
   0.541E+02 0.176E+01 0.735E-01   -.598E+02 -.251E+01 0.510E+00   0.576E+01 0.748E+00 -.581E+00   0.137E-03 -.608E-03 0.465E-03
   0.138E+02 -.157E+02 -.624E+02   -.158E+02 0.177E+02 0.691E+02   0.196E+01 -.194E+01 -.658E+01   0.542E-03 -.952E-03 -.317E-02
   0.815E+01 0.646E+02 0.460E+01   -.937E+01 -.715E+02 -.527E+01   0.120E+01 0.688E+01 0.661E+00   0.203E-03 0.300E-02 -.432E-05
   -.663E+02 -.716E+01 0.340E+01   0.734E+02 0.800E+01 -.393E+01   -.697E+01 -.831E+00 0.520E+00   -.326E-02 -.495E-03 -.580E-04
   -.100E+02 0.124E+02 0.523E+02   0.116E+02 -.140E+02 -.578E+02   -.159E+01 0.157E+01 0.545E+01   0.604E-03 -.143E-03 0.599E-03
   -.176E+01 -.541E+02 0.735E-01   0.251E+01 0.598E+02 0.510E+00   -.748E+00 -.576E+01 -.581E+00   0.608E-03 -.137E-03 0.465E-03
   0.546E+02 0.861E+01 -.751E+00   -.603E+02 -.976E+01 0.143E+01   0.568E+01 0.115E+01 -.672E+00   0.368E-03 -.940E-04 0.466E-03
   0.157E+02 -.138E+02 -.624E+02   -.177E+02 0.158E+02 0.691E+02   0.194E+01 -.196E+01 -.658E+01   0.952E-03 -.542E-03 -.317E-02
   0.716E+01 0.663E+02 0.340E+01   -.800E+01 -.734E+02 -.393E+01   0.831E+00 0.697E+01 0.520E+00   0.495E-03 0.326E-02 -.583E-04
   -.646E+02 -.815E+01 0.460E+01   0.715E+02 0.937E+01 -.527E+01   -.688E+01 -.120E+01 0.661E+00   -.300E-02 -.203E-03 -.471E-05
   -.232E+00 -.310E+01 -.542E+02   -.539E+00 0.280E+01 0.600E+02   0.768E+00 0.303E+00 -.583E+01   -.532E-03 -.551E-03 0.647E-05
   -.159E+00 -.545E+02 0.108E+02   -.626E+00 0.600E+02 -.125E+02   0.782E+00 -.552E+01 0.169E+01   -.609E-03 -.704E-05 -.307E-03
   -.548E+02 0.772E+01 0.528E+01   0.602E+02 -.929E+01 -.655E+01   -.548E+01 0.157E+01 0.127E+01   -.814E-04 -.633E-03 -.206E-03
   -.598E+01 -.417E+00 0.667E+02   0.697E+01 0.591E+00 -.740E+02   -.967E+00 -.170E+00 0.720E+01   -.691E-03 -.255E-03 0.290E-02
   -.486E+01 0.634E+02 -.182E+02   0.557E+01 -.703E+02 0.202E+02   -.703E+00 0.674E+01 -.199E+01   -.651E-03 0.252E-02 -.695E-03
   0.626E+02 -.152E+02 -.108E+02   -.693E+02 0.171E+02 0.122E+02   0.656E+01 -.192E+01 -.129E+01   0.247E-02 -.113E-02 -.481E-03
   -.286E+01 0.107E+02 0.165E+00   0.275E+01 -.106E+02 -.123E+00   0.105E+00 -.788E-01 -.448E-01   -.780E-03 0.297E-03 -.150E-04
   0.316E+01 -.689E+01 -.694E+00   -.310E+01 0.683E+01 0.809E+00   -.604E-01 0.554E-01 -.120E+00   0.810E-03 -.522E-03 0.242E-04
   -.107E+02 0.286E+01 0.165E+00   0.106E+02 -.275E+01 -.123E+00   0.788E-01 -.105E+00 -.448E-01   -.296E-03 0.781E-03 -.198E-04
   0.689E+01 -.316E+01 -.694E+00   -.683E+01 0.310E+01 0.809E+00   -.554E-01 0.604E-01 -.120E+00   0.520E-03 -.811E-03 0.196E-04
   0.486E+02 -.360E+02 0.600E+02   -.552E+02 0.421E+02 -.690E+02   0.665E+01 -.605E+01 0.902E+01   0.458E-02 -.259E-02 0.501E-02
   0.580E+02 0.634E+02 -.432E+02   -.655E+02 -.715E+02 0.496E+02   0.748E+01 0.811E+01 -.641E+01   0.472E-02 0.510E-02 -.311E-02
   -.634E+02 -.580E+02 -.432E+02   0.715E+02 0.655E+02 0.496E+02   -.811E+01 -.748E+01 -.641E+01   -.510E-02 -.472E-02 -.312E-02
   0.360E+02 -.486E+02 0.600E+02   -.421E+02 0.552E+02 -.690E+02   0.605E+01 -.665E+01 0.902E+01   0.259E-02 -.458E-02 0.501E-02
   -.262E+02 0.129E+02 0.101E-03   0.261E+02 -.128E+02 0.420E+00   0.119E+00 -.110E+00 -.426E+00   -.463E-03 -.228E-03 0.607E-04
   0.117E+02 0.131E+02 -.738E+00   -.121E+02 -.137E+02 0.650E+00   0.429E+00 0.533E+00 0.945E-01   0.358E-03 0.283E-03 0.367E-03
   -.357E+01 -.393E+01 -.427E+01   0.412E+01 0.445E+01 0.407E+01   -.555E+00 -.522E+00 0.193E+00   0.814E-04 0.144E-03 0.351E-03
   0.206E+02 -.335E+02 -.656E+00   -.203E+02 0.332E+02 0.671E+00   -.247E+00 0.278E+00 -.174E-01   -.229E-03 -.411E-03 -.906E-03
   0.335E+02 -.206E+02 -.656E+00   -.332E+02 0.203E+02 0.671E+00   -.278E+00 0.247E+00 -.174E-01   0.410E-03 0.229E-03 -.915E-03
   0.393E+01 0.357E+01 -.427E+01   -.445E+01 -.412E+01 0.407E+01   0.522E+00 0.555E+00 0.193E+00   -.143E-03 -.817E-04 0.342E-03
   -.131E+02 -.117E+02 -.738E+00   0.137E+02 0.121E+02 0.650E+00   -.533E+00 -.429E+00 0.945E-01   -.282E-03 -.359E-03 0.358E-03
   -.129E+02 0.262E+02 0.258E-03   0.128E+02 -.261E+02 0.420E+00   0.110E+00 -.119E+00 -.426E+00   0.227E-03 0.464E-03 0.524E-04
   -.245E+02 0.281E+02 0.172E+01   0.243E+02 -.284E+02 -.174E+01   0.134E+00 0.356E+00 0.250E-01   -.170E-02 0.123E-02 -.181E-03
   0.284E+02 0.290E+01 0.234E+01   -.288E+02 -.270E+01 -.243E+01   0.397E+00 -.203E+00 0.815E-01   0.167E-02 -.687E-03 -.185E-03
   -.281E+02 0.245E+02 0.172E+01   0.284E+02 -.243E+02 -.174E+01   -.356E+00 -.134E+00 0.250E-01   -.123E-02 0.170E-02 -.180E-03
   -.290E+01 -.284E+02 0.234E+01   0.270E+01 0.288E+02 -.243E+01   0.203E+00 -.397E+00 0.815E-01   0.685E-03 -.167E-02 -.184E-03
   -.298E+02 0.372E+02 -.340E+02   0.292E+02 -.366E+02 0.332E+02   0.641E+00 -.600E+00 0.753E+00   0.111E-02 0.952E-03 -.946E-03
   -.320E+02 -.364E+02 0.206E+02   0.311E+02 0.357E+02 -.195E+02   0.857E+00 0.602E+00 -.108E+01   0.189E-02 0.235E-02 0.123E-03
   0.364E+02 0.320E+02 0.206E+02   -.357E+02 -.311E+02 -.195E+02   -.602E+00 -.857E+00 -.108E+01   -.235E-02 -.189E-02 0.124E-03
   -.372E+02 0.298E+02 -.340E+02   0.366E+02 -.292E+02 0.332E+02   0.600E+00 -.641E+00 0.753E+00   -.950E-03 -.112E-02 -.944E-03
   -.120E+02 0.120E+02 -.385E+01   -.284E-13 -.711E-14 0.639E-13   0.120E+02 -.120E+02 0.384E+01   0.398E-02 -.398E-02 0.153E-03

 POSITION                                       TOTAL-FORCE (eV/Angst)
      4.39252      8.75720     10.65521         0.000448      0.003800      0.011704
      4.63273      7.57372      9.32299         0.001433     -0.003825      0.000567
      3.28765      8.76083      9.23923        -0.011321      0.003452     -0.006639
      5.18657      0.62058      7.85716        -0.002916     -0.015933     -0.092045
      4.92482      1.74136      9.07499        -0.025703      0.080814      0.017511
      6.20371      0.65285      9.17649         0.087994     -0.012182      0.030954
      0.00004      4.56006      7.98824         0.002909     -0.001999     -0.005905
      8.72337      5.93784      9.13746         0.000835      0.002516      0.004493
      7.41366      4.71528      9.11903        -0.000999      0.001386      0.003334
      0.13432      4.36068     10.96409        -0.025925      0.025824      0.085044
      0.23921      3.05736      9.90626        -0.016473     -0.086684     -0.011657
      1.45137      4.20260      9.92820         0.089342      0.011336     -0.008089
      4.24084      8.80086      1.64539         0.001999     -0.002909     -0.005905
      4.08562      1.38725      2.77618        -0.001386      0.000999      0.003334
      2.86306      0.07753      2.79461        -0.002516     -0.000835      0.004493
      4.44022      8.66658      4.62124        -0.025824      0.025925      0.085044
      4.59830      7.34953      3.58535        -0.011336     -0.089342     -0.008089
      5.74354      8.56169      3.56341         0.086684      0.016473     -0.011657
      0.04370      4.40839      4.31236        -0.003800     -0.000448      0.011704
      0.04007      5.51325      2.89638        -0.003452      0.011321     -0.006639
      1.22718      4.16817      2.98014         0.003825     -0.001433      0.000567
      8.18032      3.61433      1.51431         0.015933      0.002916     -0.092045
      8.14805      2.59719      2.83364         0.012182     -0.087994      0.030954
      7.05954      3.87608      2.73214        -0.080814      0.025703      0.017511
      0.00772      8.65138     12.55357        -0.004094      0.007358     -0.002393
      4.39082      4.32250     12.56349         0.001807     -0.000820     -0.004661
      0.14952      8.79318      6.21072        -0.007358      0.004094     -0.002393
      4.47840      4.41008      6.22064         0.000820     -0.001807     -0.004661
      3.92224      0.31246      2.64422        -0.000675      0.004782     -0.012173
      4.31598      8.59116      9.57656        -0.000787     -0.012245      0.001924
      0.20975      4.48492      3.23371         0.012245      0.000787      0.001924
      8.48844      4.87866      8.98707        -0.004782      0.000675     -0.012173
      1.80656      2.48195      0.25602        -0.004266     -0.004351     -0.005794
      6.21407      1.71991     12.45421        -0.002063     -0.002597      0.007105
      2.56097      6.85960     12.41014        -0.001546     -0.004591     -0.003118
      7.17706      5.90893     12.37868        -0.008530     -0.004235     -0.003512
      2.89197      1.62384      6.03583         0.004235      0.008530     -0.003512
      1.94130      6.23993      6.06729         0.004591      0.001546     -0.003118
      7.08099      2.58684      6.11136         0.002597      0.002063      0.007105
      6.31895      6.99434      6.59887         0.004351      0.004266     -0.005794
      8.34281      8.72565      3.05609         0.000274     -0.003846      0.003954
      4.64885      4.75235      3.05471         0.001666     -0.001936     -0.002089
      0.07525      0.45809      9.39894         0.003846     -0.000274      0.003954
      4.04855      4.15205      9.39756         0.001936     -0.001666     -0.002089
      4.72375      8.37899      3.66497        -0.043825      0.043546     -0.049961
      5.21229      0.75829      8.88152        -0.050916     -0.042901      0.041446
      8.04261      3.58861      2.53867         0.042901      0.050916      0.041446
      0.42191      4.07715     10.00782        -0.043546      0.043825     -0.049961
    total drift:                                0.011949     -0.010548     -0.009200

  FREE ENERGIE OF THE ION-ELECTRON SYSTEM (eV)
  free  energy   TOTEN  =      -203.21102200 eV

  energy  without entropy=     -203.21102200  energy(sigma->0) =     -203.21102200

 stress matrix after NEB project (eV)
      2.80646     -0.49776      0.10204
     -0.49776      2.80646     -0.10204
      0.10204     -0.10204      4.95143
  FORCES: max atom, RMS     0.094072    0.051395
  FORCE total and by dimension    0.356074    0.092045
  Stress total and by dimension    6.387980    4.951430

 total charge

# of ion       s       p       d       tot
    1        0.639   0.047   0.000   0.687
    2        0.640   0.046   0.000   0.686
    3        0.640   0.046   0.000   0.686
    4        0.613   0.077   0.000   0.689
    5        0.604   0.076   0.000   0.681
    6        0.607   0.076   0.000   0.683
    7        0.640   0.047   0.000   0.687
    8        0.641   0.046   0.000   0.687
    9        0.641   0.046   0.000   0.687
   10        0.607   0.076   0.000   0.683
   11        0.606   0.076   0.000   0.681
   12        0.606   0.076   0.000   0.682
   13        0.640   0.047   0.000   0.687
   14        0.641   0.046   0.000   0.687
   15        0.641   0.046   0.000   0.687
   16        0.607   0.076   0.000   0.683
   17        0.606   0.076   0.000   0.683
   18        0.605   0.076   0.000   0.681
   19        0.639   0.047   0.000   0.687
   20        0.640   0.046   0.000   0.686
   21        0.640   0.046   0.000   0.686
   22        0.613   0.077   0.000   0.689
   23        0.607   0.076   0.000   0.683
   24        0.604   0.076   0.000   0.681
   25        1.808   0.916   0.110   2.834
   26        1.808   0.924   0.112   2.845
   27        1.808   0.917   0.110   2.836
   28        1.808   0.923   0.112   2.844
   29        1.330   2.908   0.000   4.238
   30        1.329   2.910   0.000   4.239
   31        1.329   2.909   0.000   4.239
   32        1.330   2.908   0.000   4.238
   33        1.505   2.808   0.007   4.320
   34        1.506   2.806   0.007   4.320
   35        1.507   2.803   0.008   4.317
   36        1.505   2.804   0.007   4.316
   37        1.505   2.804   0.007   4.316
   38        1.507   2.803   0.008   4.318
   39        1.506   2.806   0.007   4.319
   40        1.505   2.808   0.007   4.320
   41        1.506   2.805   0.008   4.318
   42        1.506   2.808   0.008   4.322
   43        1.506   2.805   0.008   4.319
   44        1.506   2.808   0.008   4.321
   45        1.234   2.736   0.000   3.970
   46        1.234   2.736   0.000   3.971
   47        1.234   2.736   0.000   3.971
   48        1.234   2.736   0.000   3.969
tot         50.523  61.396   0.533 112.453