 vasp.5.4.4.18Apr17-6-g9f103f2a35 (build Jan 19 2018 17:03:37) complex

 executed on             LinuxIFC date 2018.03.22  15:02:51

 INCAR:
 POTCAR:   PAW_PBE H 15Jun2001
 POTCAR:   PAW_PBE Pb 08Apr2002
 POTCAR:   PAW_PBE C_s 06Sep2000
 POTCAR:   PAW_PBE I 08Apr2002
 POTCAR:   PAW_PBE N 08Apr2002

 POTCAR:   PAW_PBE H 15Jun2001
   VRHFIN =H: ultrasoft test

   TITEL  = PAW_PBE H 15Jun2001
   POMASS =    1.000; ZVAL   =    1.000    mass and valenz
   ENMAX  =  250.000; ENMIN  =  200.000 eV
   QCUT   =   -5.749; QGAM   =   11.498    optimization parameters

   Description
     l     E      TYP  RCUT    TYP  RCUT
     0   .000     23  1.100
     0   .500     23  1.100
     1  -.300     23  1.100

 POTCAR:   PAW_PBE Pb 08Apr2002
   VRHFIN =Pb:

   TITEL  = PAW_PBE Pb 08Apr2002
   POMASS =  207.200; ZVAL   =    4.000    mass and valenz
   ENMAX  =   97.973; ENMIN  =   73.480 eV
   QCUT   =   -2.683; QGAM   =    5.367    optimization parameters

[...]

 POTCAR:   PAW_PBE C_s 06Sep2000
   VRHFIN =C: s2p2

   TITEL  = PAW_PBE C_s 06Sep2000
   POMASS =   12.011; ZVAL   =    4.000    mass and valenz
   ENMAX  =  273.901; ENMIN  =  205.426 eV
   QCUT   =   -4.487; QGAM   =    8.974    optimization parameters

[...]

 POTCAR:   PAW_PBE I 08Apr2002
   VRHFIN =I : s2p5

[...]

 POTCAR:   PAW_PBE N 08Apr2002
   VRHFIN =N: s2p3

   TITEL  = PAW_PBE N 08Apr2002
   POMASS =   14.001; ZVAL   =    5.000    mass and valenz
   ENMAX  =  400.000; ENMIN  =  300.000 eV
   QCUT   =   -5.562; QGAM   =   11.124    optimization parameters

   Description
     l     E      TYP  RCUT    TYP  RCUT
     0   .000     23  1.200
     0   .000     23  1.200
     1   .000     23  1.500
     1   .700     23  1.500
     2   .000      7  1.500

 Optimization of the real space projectors (new method)

 maximal supplied QI-value         = 34.20
 optimisation between [QCUT,QGAM] = [  9.92, 20.18] = [ 27.55,114.04] Ry
 Optimized for a Real-space Cutoff    1.34 Angstroem

   l    n(q)    QCUT    max X(q) W(low)/X(q) W(high)/X(q)  e(spline)
   0      8     9.919     4.436    0.31E-04    0.59E-04    0.66E-07
   0      8     9.919    16.131    0.16E-03    0.20E-03    0.35E-06
   1      8     9.919     4.654    0.19E-03    0.46E-03    0.40E-06
 Optimization of the real space projectors (new method)

[...]

   l    n(q)    QCUT    max X(q) W(low)/X(q) W(high)/X(q)  e(spline)
   0      9    10.239     6.350    0.16E-04    0.55E-05    0.44E-08
   0      9    10.239    79.378    0.80E-04    0.11E-03    0.78E-07
   1      8    10.239     4.566    0.21E-04    0.12E-04    0.22E-07
   1      8    10.239    71.978    0.25E-03    0.30E-03    0.73E-07
   2      8    10.239     4.877    0.44E-04    0.81E-04    0.46E-07
 Optimization of the real space projectors (new method)

 maximal supplied QI-value         = 25.13
 optimisation between [QCUT,QGAM] = [ 10.05, 20.36] = [ 28.30,116.06] Ry
 Optimized for a Real-space Cutoff    1.70 Angstroem

   l    n(q)    QCUT    max X(q) W(low)/X(q) W(high)/X(q)  e(spline)
   0     10    10.053     4.511    0.26E-04    0.81E-05    0.18E-06
   0     10    10.053    37.799    0.60E-04    0.98E-04    0.61E-06
   1     10    10.053     2.478    0.79E-05    0.19E-04    0.19E-06
   1     10    10.053     4.765    0.18E-03    0.77E-03    0.49E-05
 PAW_PBE H 15Jun2001                    :
 PAW_PBE Pb 08Apr2002                   :
 PAW_PBE C_s 06Sep2000                  :
 PAW_PBE I 08Apr2002                    :
 PAW_PBE N 08Apr2002                    :

 POSCAR: CH3PbI3 tetragonal
  positions in direct lattice
  velocities in cartesian coordinates
 exchange correlation table for  LEXCH =        8
   RHO(1)=    0.500       N(1)  =     2000
   RHO(2)=  100.500       N(2)  =     4000

 VTST: version 3.1, (03/28/14)

 CHAIN: initializing optimizer

 OPT: Using VASP Dynamics algorithm
 CHAIN: Read ICHAIN            0

 POSCAR: CH3PbI3 tetragonal
  positions in direct lattice
  velocities in cartesian coordinates

 ion  position               nearest neighbor table
   1  0.499  0.995  0.840-  30 1.09
   2  0.526  0.861  0.735-  30 1.10
   3  0.374  0.995  0.728-  30 1.10
   4  0.589  0.071  0.619-  46 1.03
   5  0.560  0.198  0.715-  46 1.04
   6  0.705  0.074  0.723-  46 1.04
   7  0.000  0.518  0.630-  32 1.09
   8  0.991  0.675  0.720-  32 1.10
   9  0.842  0.536  0.719-  32 1.10
  10  0.015  0.495  0.864-  48 1.04
  11  0.027  0.347  0.781-  48 1.04
  12  0.165  0.478  0.783-  48 1.04
  13  0.482  1.000  0.130-  29 1.09
  14  0.464  0.158  0.219-  29 1.10
  15  0.325  0.009  0.220-  29 1.10
  16  0.505  0.985  0.364-  45 1.04
  17  0.522  0.835  0.283-  45 1.04
  18  0.653  0.973  0.281-  45 1.04
  19  0.005  0.501  0.340-  31 1.09
  20  0.005  0.626  0.228-  31 1.10
  21  0.139  0.474  0.235-  31 1.10
  22  0.929  0.411  0.119-  47 1.03
  23  0.926  0.295  0.223-  47 1.04
  24  0.802  0.440  0.215-  47 1.04
  25  0.001  0.983  0.990-  35 3.12  36 3.20  34 3.20  33 3.21  43 3.21  41 3.22
  26  0.499  0.491  0.990-  35 3.13  34 3.18  44 3.19  33 3.20  36 3.21  42 3.22
  27  0.017  0.999  0.490-  38 3.12  37 3.20  39 3.20  40 3.21  41 3.21  43 3.22
  28  0.509  0.501  0.490-  38 3.13  39 3.18  42 3.19  40 3.20  37 3.21  44 3.22
  29  0.446  0.036  0.208-  13 1.09  14 1.10  15 1.10  45 1.49
  30  0.490  0.976  0.755-   1 1.09   2 1.10   3 1.10  46 1.49
  31  0.024  0.510  0.255-  19 1.09  21 1.10  20 1.10  47 1.49
  32  0.964  0.554  0.708-   7 1.09   9 1.10   8 1.10  48 1.49
  33  0.205  0.282  0.020-  26 3.20  25 3.21
  34  0.706  0.195  0.982-  26 3.18  25 3.20
  35  0.291  0.779  0.978-  25 3.12  26 3.13
  36  0.815  0.671  0.976-  25 3.20  26 3.21
  37  0.329  0.185  0.476-  27 3.20  28 3.21
  38  0.221  0.709  0.478-  27 3.12  28 3.13
  39  0.805  0.294  0.482-  28 3.18  27 3.20
  40  0.718  0.795  0.520-  28 3.20  27 3.21
  41  0.948  0.991  0.241-  27 3.21  25 3.22
  42  0.528  0.540  0.241-  28 3.19  26 3.22
  43  0.009  0.052  0.741-  25 3.21  27 3.22
  44  0.460  0.472  0.741-  26 3.19  28 3.22
  45  0.537  0.952  0.289-  16 1.04  17 1.04  18 1.04  29 1.49
  46  0.592  0.086  0.700-   4 1.03   6 1.04   5 1.04  30 1.49
  47  0.914  0.408  0.200-  22 1.03  23 1.04  24 1.04  31 1.49
  48  0.048  0.463  0.789-  10 1.04  12 1.04  11 1.04  32 1.49

  LATTYP: Found a simple tetragonal cell.
 ALAT       =     8.8009004593
 C/A-ratio  =     1.4414093734

  Lattice vectors:

 A1 = (   8.8009004593,   0.0000000000,   0.0000000000)
 A2 = (   0.0000000000,   8.8009004593,   0.0000000000)
 A3 = (   0.0000000000,   0.0000000000,  12.6857004166)

Analysis of symmetry for initial positions (statically):
 Subroutine PRICEL returns:
 Original cell was already a primitive cell.

 Routine SETGRP: Setting up the symmetry group for a
 simple tetragonal supercell.

 Subroutine GETGRP returns: Found  2 space group operations
 (whereof  1 operations were pure point group operations)
 out of a pool of 16 trial point group operations.

The static configuration has the point symmetry C_1 .
 The point group associated with its full space group is C_1h.

Analysis of symmetry for dynamics (positions and initial velocities):
 Subroutine PRICEL returns:
 Original cell was already a primitive cell.

[...]

The dynamic configuration has the point symmetry C_1 .
 The point group associated with its full space group is C_1h.

Analysis of structural, dynamic, and magnetic symmetry:
 Subroutine PRICEL returns:
 Original cell was already a primitive cell.

 Routine SETGRP: Setting up the symmetry group for a
 simple tetragonal supercell.

 Subroutine GETGRP returns: Found  2 space group operations
 (whereof  1 operations were pure point group operations)
 out of a pool of 16 trial point group operations.

The (compounded) configuration has the point symmetry C_1 .
 The point group associated with its full space group is C_1h.

 Subroutine INISYM returns: Found  2 space group operations
 (whereof  1 operations are pure point group operations),
 and found     1 'primitive' translations

 KPOINTS: Automatic Mesh

Automatic generation of k-mesh.
Space group operators:
 irot       det(A)        alpha          n_x          n_y          n_z        tau_x        tau_y        tau_z
    1     1.000000     0.000000     1.000000     0.000000     0.000000     0.000000     0.000000     0.000000
    2    -1.000000   180.000000     0.707107     0.707107     0.000000     0.000000     0.000000     0.500000

 Subroutine IBZKPT returns following result:

 Found    196 irreducible k-points:

 Following reciprocal coordinates:
            Coordinates               Weight
  0.000000  0.000000  0.000000      1.000000
  0.142857  0.000000  0.000000      2.000000
  0.285714  0.000000  0.000000      2.000000
  0.428571  0.000000  0.000000      2.000000
 -0.428571  0.000000  0.000000      2.000000
 -0.285714  0.000000  0.000000      2.000000
 -0.142857  0.000000  0.000000      2.000000
  0.142857  0.142857  0.000000      2.000000
  0.285714  0.142857  0.000000      2.000000
  0.428571  0.142857  0.000000      2.000000
 -0.428571  0.142857  0.000000      2.000000
 -0.285714  0.142857  0.000000      2.000000
 -0.142857  0.142857  0.000000      1.000000
  0.142857  0.285714  0.000000      2.000000
  0.285714  0.285714  0.000000      2.000000
  0.428571  0.285714  0.000000      2.000000
 -0.428571  0.285714  0.000000      2.000000
 -0.285714  0.285714  0.000000      1.000000
  0.142857  0.428571  0.000000      2.000000
  0.285714  0.428571  0.000000      2.000000
  0.428571  0.428571  0.000000      2.000000
 -0.428571  0.428571  0.000000      1.000000
  0.142857 -0.428571  0.000000      2.000000
  0.285714 -0.428571  0.000000      2.000000
  0.428571 -0.428571  0.000000      1.000000
  0.142857 -0.285714  0.000000      2.000000
  0.285714 -0.285714  0.000000      1.000000
  0.142857 -0.142857  0.000000      1.000000
  0.000000  0.000000  0.142857      1.000000
  0.142857  0.000000  0.142857      2.000000
  0.285714  0.000000  0.142857      2.000000
  0.428571  0.000000  0.142857      2.000000
 -0.428571  0.000000  0.142857      2.000000
 -0.285714  0.000000  0.142857      2.000000
 -0.142857  0.000000  0.142857      2.000000
  0.142857  0.142857  0.142857      2.000000
  0.285714  0.142857  0.142857      2.000000
  0.428571  0.142857  0.142857      2.000000
 -0.428571  0.142857  0.142857      2.000000
 -0.285714  0.142857  0.142857      2.000000
 -0.142857  0.142857  0.142857      1.000000
  0.142857  0.285714  0.142857      2.000000
  0.285714  0.285714  0.142857      2.000000
  0.428571  0.285714  0.142857      2.000000
 -0.428571  0.285714  0.142857      2.000000
 -0.285714  0.285714  0.142857      1.000000
  0.142857  0.428571  0.142857      2.000000
  0.285714  0.428571  0.142857      2.000000
  0.428571  0.428571  0.142857      2.000000
 -0.428571  0.428571  0.142857      1.000000
  0.142857 -0.428571  0.142857      2.000000
  0.285714 -0.428571  0.142857      2.000000
  0.428571 -0.428571  0.142857      1.000000
  0.142857 -0.285714  0.142857      2.000000
  0.285714 -0.285714  0.142857      1.000000
  0.142857 -0.142857  0.142857      1.000000
  0.000000  0.000000  0.285714      1.000000
  0.142857  0.000000  0.285714      2.000000
[...]
  Fock        0.00000     0.00000     0.00000     0.00000     0.00000     0.00000
  Total       2.94446     2.94446     5.14561    -0.45044    -0.09069     0.09069
  in kB       4.80117     4.80117     8.39032    -0.73447    -0.14788     0.14788

 VOLUME and BASIS-vectors are now :
  energy-cutoff  :      400.00
  volume of cell :      982.58
      direct lattice vectors                 reciprocal lattice vectors
     8.800900459  0.000000000  0.000000000     0.113624737  0.000000000  0.000000000
     0.000000000  8.800900459  0.000000000     0.000000000  0.113624737  0.000000000
     0.000000000  0.000000000 12.685700417     0.000000000  0.000000000  0.078828915

  length of vectors
     8.800900459  8.800900459 12.685700417     0.113624737  0.113624737  0.078828915

 FORCES acting on ions
    electron-ion (+dipol)            ewald-force                    non-local-force                 convergence-correction
   0.311E+01 0.233E+00 -.542E+02   -.280E+01 0.539E+00 0.600E+02   -.303E+00 -.768E+00 -.583E+01   0.212E-03 0.165E-03 -.618E-04
   -.772E+01 0.548E+02 0.527E+01   0.929E+01 -.602E+02 -.655E+01   -.157E+01 0.548E+01 0.127E+01   0.245E-03 0.680E-04 0.256E-04
   0.545E+02 0.160E+00 0.108E+02   -.600E+02 0.626E+00 -.125E+02   0.552E+01 -.782E+00 0.169E+01   0.314E-04 0.221E-03 -.218E-04
   0.418E+00 0.599E+01 0.667E+02   -.591E+00 -.697E+01 -.740E+02   0.170E+00 0.966E+00 0.720E+01   0.175E-03 0.383E-03 0.134E-02
   0.152E+02 -.626E+02 -.108E+02   -.171E+02 0.693E+02 0.122E+02   0.192E+01 -.656E+01 -.129E+01   0.613E-03 -.109E-02 -.213E-03
   -.634E+02 0.486E+01 -.182E+02   0.703E+02 -.557E+01 0.202E+02   -.674E+01 0.703E+00 -.199E+01   -.111E-02 0.378E-03 -.297E-03
   -.124E+02 0.100E+02 0.523E+02   0.140E+02 -.116E+02 -.578E+02   -.157E+01 0.159E+01 0.545E+01   -.491E-04 -.227E-03 0.450E-03
   -.861E+01 -.546E+02 -.750E+00   0.976E+01 0.603E+02 0.143E+01   -.114E+01 -.568E+01 -.672E+00   -.538E-04 -.331E-03 0.128E-03
   0.540E+02 0.176E+01 0.732E-01   -.598E+02 -.251E+01 0.510E+00   0.576E+01 0.748E+00 -.581E+00   0.198E-03 -.273E-03 0.130E-03
   0.138E+02 -.157E+02 -.624E+02   -.158E+02 0.177E+02 0.691E+02   0.196E+01 -.194E+01 -.658E+01   0.217E-03 -.472E-03 -.163E-02
   0.815E+01 0.646E+02 0.460E+01   -.937E+01 -.715E+02 -.527E+01   0.120E+01 0.688E+01 0.661E+00   0.333E-04 0.148E-02 -.768E-04
   -.663E+02 -.716E+01 0.340E+01   0.734E+02 0.800E+01 -.393E+01   -.697E+01 -.831E+00 0.520E+00   -.163E-02 -.233E-03 -.992E-04
   -.100E+02 0.124E+02 0.523E+02   0.116E+02 -.140E+02 -.578E+02   -.159E+01 0.157E+01 0.545E+01   0.227E-03 0.495E-04 0.451E-03
   -.176E+01 -.540E+02 0.731E-01   0.251E+01 0.598E+02 0.510E+00   -.748E+00 -.576E+01 -.581E+00   0.273E-03 -.198E-03 0.130E-03
   0.546E+02 0.861E+01 -.751E+00   -.603E+02 -.976E+01 0.143E+01   0.568E+01 0.114E+01 -.672E+00   0.331E-03 0.541E-04 0.128E-03
   0.157E+02 -.138E+02 -.624E+02   -.177E+02 0.158E+02 0.691E+02   0.194E+01 -.196E+01 -.658E+01   0.471E-03 -.216E-03 -.163E-02
   0.716E+01 0.663E+02 0.340E+01   -.800E+01 -.734E+02 -.393E+01   0.831E+00 0.697E+01 0.520E+00   0.233E-03 0.163E-02 -.995E-04
   -.646E+02 -.815E+01 0.460E+01   0.715E+02 0.937E+01 -.527E+01   -.688E+01 -.120E+01 0.661E+00   -.148E-02 -.330E-04 -.772E-04
   -.233E+00 -.311E+01 -.542E+02   -.539E+00 0.280E+01 0.600E+02   0.768E+00 0.303E+00 -.583E+01   -.164E-03 -.212E-03 -.626E-04
   -.160E+00 -.545E+02 0.108E+02   -.626E+00 0.600E+02 -.125E+02   0.782E+00 -.552E+01 0.169E+01   -.220E-03 -.315E-04 -.218E-04
   -.548E+02 0.772E+01 0.527E+01   0.602E+02 -.929E+01 -.655E+01   -.548E+01 0.157E+01 0.127E+01   -.678E-04 -.245E-03 0.256E-04
   -.599E+01 -.418E+00 0.667E+02   0.697E+01 0.591E+00 -.740E+02   -.966E+00 -.170E+00 0.720E+01   -.383E-03 -.176E-03 0.134E-02
   -.486E+01 0.634E+02 -.182E+02   0.557E+01 -.703E+02 0.202E+02   -.703E+00 0.674E+01 -.199E+01   -.378E-03 0.111E-02 -.297E-03
   0.626E+02 -.152E+02 -.108E+02   -.693E+02 0.171E+02 0.122E+02   0.656E+01 -.192E+01 -.129E+01   0.109E-02 -.613E-03 -.213E-03
   -.286E+01 0.107E+02 0.166E+00   0.275E+01 -.106E+02 -.123E+00   0.109E+00 -.821E-01 -.461E-01   -.416E-03 0.160E-03 0.362E-07
   0.316E+01 -.688E+01 -.691E+00   -.310E+01 0.683E+01 0.809E+00   -.631E-01 0.485E-01 -.124E+00   0.476E-03 -.344E-03 0.310E-04
   -.107E+02 0.286E+01 0.166E+00   0.106E+02 -.275E+01 -.123E+00   0.821E-01 -.109E+00 -.461E-01   -.159E-03 0.417E-03 -.438E-05
   0.688E+01 -.316E+01 -.691E+00   -.683E+01 0.310E+01 0.809E+00   -.485E-01 0.631E-01 -.124E+00   0.342E-03 -.476E-03 0.267E-04
   0.486E+02 -.360E+02 0.600E+02   -.552E+02 0.421E+02 -.690E+02   0.665E+01 -.606E+01 0.901E+01   0.201E-02 -.834E-03 0.189E-02
   0.580E+02 0.634E+02 -.432E+02   -.655E+02 -.715E+02 0.496E+02   0.748E+01 0.811E+01 -.641E+01   0.188E-02 0.197E-02 -.978E-03
   -.634E+02 -.580E+02 -.432E+02   0.715E+02 0.655E+02 0.496E+02   -.811E+01 -.748E+01 -.641E+01   -.197E-02 -.188E-02 -.978E-03
   0.360E+02 -.486E+02 0.600E+02   -.421E+02 0.552E+02 -.690E+02   0.606E+01 -.665E+01 0.901E+01   0.835E-03 -.201E-02 0.189E-02
   -.262E+02 0.129E+02 -.309E-01   0.261E+02 -.128E+02 0.420E+00   0.912E-01 -.741E-01 -.395E+00   0.209E-04 -.410E-03 0.237E-03
   0.117E+02 0.131E+02 -.731E+00   -.121E+02 -.137E+02 0.650E+00   0.392E+00 0.508E+00 0.873E-01   0.282E-04 0.754E-04 0.337E-03
   -.360E+01 -.397E+01 -.425E+01   0.412E+01 0.445E+01 0.407E+01   -.528E+00 -.486E+00 0.181E+00   0.208E-03 0.339E-03 0.156E-03
   0.205E+02 -.334E+02 -.645E+00   -.203E+02 0.332E+02 0.671E+00   -.195E+00 0.235E+00 -.284E-01   -.250E-03 -.106E-03 -.714E-03
   0.334E+02 -.205E+02 -.645E+00   -.332E+02 0.203E+02 0.671E+00   -.235E+00 0.195E+00 -.284E-01   0.105E-03 0.251E-03 -.722E-03
   0.397E+01 0.360E+01 -.425E+01   -.445E+01 -.412E+01 0.407E+01   0.486E+00 0.528E+00 0.181E+00   -.338E-03 -.208E-03 0.148E-03
   -.131E+02 -.117E+02 -.731E+00   0.137E+02 0.121E+02 0.650E+00   -.508E+00 -.392E+00 0.873E-01   -.750E-04 -.294E-04 0.329E-03
   -.129E+02 0.262E+02 -.308E-01   0.128E+02 -.261E+02 0.420E+00   0.741E-01 -.912E-01 -.395E+00   0.409E-03 -.197E-04 0.230E-03
   -.244E+02 0.281E+02 0.172E+01   0.243E+02 -.284E+02 -.174E+01   0.876E-01 0.357E+00 0.244E-01   -.905E-03 0.654E-03 -.142E-03
   0.284E+02 0.286E+01 0.235E+01   -.288E+02 -.270E+01 -.243E+01   0.414E+00 -.167E+00 0.781E-01   0.818E-03 -.473E-03 -.137E-03
   -.281E+02 0.244E+02 0.172E+01   0.284E+02 -.243E+02 -.174E+01   -.357E+00 -.876E-01 0.244E-01   -.653E-03 0.907E-03 -.142E-03
   -.286E+01 -.284E+02 0.235E+01   0.270E+01 0.288E+02 -.243E+01   0.167E+00 -.414E+00 0.781E-01   0.471E-03 -.820E-03 -.137E-03
   -.298E+02 0.372E+02 -.340E+02   0.292E+02 -.366E+02 0.332E+02   0.634E+00 -.595E+00 0.750E+00   0.658E-03 0.604E-03 -.712E-03
   -.320E+02 -.363E+02 0.206E+02   0.311E+02 0.357E+02 -.195E+02   0.849E+00 0.595E+00 -.107E+01   0.138E-02 0.167E-02 -.103E-04
   0.363E+02 0.320E+02 0.206E+02   -.357E+02 -.311E+02 -.195E+02   -.595E+00 -.849E+00 -.107E+01   -.167E-02 -.139E-02 -.949E-05
   -.372E+02 0.298E+02 -.340E+02   0.366E+02 -.292E+02 0.332E+02   0.595E+00 -.634E+00 0.750E+00   -.602E-03 -.659E-03 -.710E-03
   -.120E+02 0.120E+02 -.383E+01   -.284E-13 -.711E-14 0.639E-13   0.120E+02 -.120E+02 0.383E+01   0.142E-02 -.142E-02 -.772E-03

 POSITION                                       TOTAL-FORCE (eV/Angst)
      4.39252      8.75720     10.65521         0.000973      0.004436      0.012796
      4.63273      7.57372      9.32299         0.001808     -0.005129      0.000345
      3.28765      8.76083      9.23923        -0.012434      0.003778     -0.007144
      5.18657      0.62058      7.85716        -0.002642     -0.015624     -0.094251
      4.92482      1.74136      9.07499        -0.026468      0.083702      0.017155
      6.20371      0.65285      9.17649         0.090677     -0.012803      0.031423
      0.00004      4.56006      7.98824         0.003272     -0.002945     -0.006538
      8.72337      5.93784      9.13746         0.001145      0.004077      0.004435
      7.41366      4.71528      9.11903        -0.002390      0.000898      0.002818
      0.13432      4.36068     10.96409        -0.026326      0.025920      0.086827
      0.23921      3.05736      9.90626        -0.017375     -0.089569     -0.011642
      1.45137      4.20260      9.92820         0.092669      0.011643     -0.007788
      4.24084      8.80086      1.64539         0.002945     -0.003272     -0.006538
      4.08562      1.38725      2.77618        -0.000898      0.002390      0.002818
      2.86306      0.07753      2.79461        -0.004077     -0.001145      0.004435
      4.44022      8.66658      4.62124        -0.025920      0.026326      0.086827
      4.59830      7.34953      3.58535        -0.011643     -0.092669     -0.007788
      5.74354      8.56169      3.56341         0.089569      0.017375     -0.011642
      0.04370      4.40839      4.31236        -0.004436     -0.000973      0.012796
      0.04007      5.51325      2.89638        -0.003778      0.012434     -0.007144
      1.22718      4.16817      2.98014         0.005129     -0.001808      0.000345
      8.18032      3.61433      1.51431         0.015624      0.002642     -0.094251
      8.14805      2.59719      2.83364         0.012803     -0.090677      0.031423
      7.05954      3.87608      2.73214        -0.083702      0.026468      0.017155
      0.00772      8.65138     12.55357        -0.001836      0.005260     -0.002653
      4.39082      4.32250     12.56349        -0.000095     -0.003763     -0.005455
      0.14952      8.79318      6.21072        -0.005260      0.001836     -0.002653
      4.47840      4.41008      6.22064         0.003763      0.000095     -0.005455
      3.92224      0.31246      2.64422        -0.001044      0.004605     -0.010645
      4.31598      8.59116      9.57656        -0.000115     -0.011586      0.000294
      0.20975      4.48492      3.23371         0.011586      0.000115      0.000294
      8.48844      4.87866      8.98707        -0.004605      0.001044     -0.010645
      1.80656      2.48195      0.25602         0.002072     -0.007253     -0.005518
      6.21407      1.71991     12.45421        -0.003219      0.000525      0.007205
      2.56097      6.85960     12.41014        -0.005774     -0.005306     -0.001453
      7.17706      5.90893     12.37868        -0.010184      0.001362     -0.002894
      2.89197      1.62384      6.03583        -0.001362      0.010184     -0.002894
      1.94130      6.23993      6.06729         0.005306      0.005774     -0.001453
      7.08099      2.58684      6.11136        -0.000525      0.003219      0.007205
      6.31895      6.99434      6.59887         0.007253     -0.002072     -0.005518
      8.34281      8.72565      3.05609         0.003506     -0.004304      0.003684
      4.64885      4.75235      3.05471        -0.002827     -0.003685     -0.001561
      0.07525      0.45809      9.39894         0.004304     -0.003506      0.003684
      4.04855      4.15205      9.39756         0.003685      0.002827     -0.001561
      4.72375      8.37899      3.66497        -0.046172      0.045227     -0.053206
      5.21229      0.75829      8.88152        -0.053904     -0.046145      0.043766
      8.04261      3.58861      2.53867         0.046145      0.053904      0.043766
      0.42191      4.07715     10.00782        -0.045227      0.046172     -0.053206
    total drift:                                0.011633     -0.010227     -0.008925

  FREE ENERGIE OF THE ION-ELECTRON SYSTEM (eV)
  free  energy   TOTEN  =      -205.57170311 eV

  energy  without entropy=     -205.57170311  energy(sigma->0) =     -205.57170311

 stress matrix after NEB project (eV)
      2.94446     -0.45044      0.09069
     -0.45044      2.94446     -0.09069
      0.09069     -0.09069      5.14561
  FORCES: max atom, RMS     0.096817    0.053194
  FORCE total and by dimension    0.368540    0.094251
  Stress total and by dimension    6.652490    5.145606
 writing wavefunctions

 Spin-Orbit-Coupling matrix elements

 Ion:    1  E_soc:     -0.0000000
 l=   1
     0.0000000    -0.0000000    -0.0000000
    -0.0000000     0.0000000    -0.0000000
    -0.0000000    -0.0000000     0.0000000
 l=   2
     0.0000000     0.0000000     0.0000000     0.0000000     0.0000000
     0.0000000     0.0000000     0.0000000     0.0000000     0.0000000
     0.0000000     0.0000000     0.0000000     0.0000000     0.0000000
     0.0000000     0.0000000     0.0000000     0.0000000     0.0000000
     0.0000000     0.0000000     0.0000000     0.0000000     0.0000000
 l=   3
     0.0000000     0.0000000     0.0000000     0.0000000     0.0000000     0.0000000     0.0000000
     0.0000000     0.0000000     0.0000000     0.0000000     0.0000000     0.0000000     0.0000000
     0.0000000     0.0000000     0.0000000     0.0000000     0.0000000     0.0000000     0.0000000
     0.0000000     0.0000000     0.0000000     0.0000000     0.0000000     0.0000000     0.0000000
     0.0000000     0.0000000     0.0000000     0.0000000     0.0000000     0.0000000     0.0000000
     0.0000000     0.0000000     0.0000000     0.0000000     0.0000000     0.0000000     0.0000000
     0.0000000     0.0000000     0.0000000     0.0000000     0.0000000     0.0000000     0.0000000

[...]

 Ion:   48  E_soc:     -0.0000505
 l=   1
     0.0000000    -0.0000081    -0.0000089
    -0.0000081     0.0000000    -0.0000082
    -0.0000089    -0.0000082     0.0000000
 l=   2
     0.0000000     0.0000000     0.0000000     0.0000000     0.0000000
     0.0000000     0.0000000     0.0000000     0.0000000     0.0000000
     0.0000000     0.0000000     0.0000000     0.0000000     0.0000000
     0.0000000     0.0000000     0.0000000     0.0000000     0.0000000
     0.0000000     0.0000000     0.0000000     0.0000000     0.0000000
 l=   3
     0.0000000     0.0000000     0.0000000     0.0000000     0.0000000     0.0000000     0.0000000
     0.0000000     0.0000000     0.0000000     0.0000000     0.0000000     0.0000000     0.0000000
     0.0000000     0.0000000     0.0000000     0.0000000     0.0000000     0.0000000     0.0000000
     0.0000000     0.0000000     0.0000000     0.0000000     0.0000000     0.0000000     0.0000000
     0.0000000     0.0000000     0.0000000     0.0000000     0.0000000     0.0000000     0.0000000
     0.0000000     0.0000000     0.0000000     0.0000000     0.0000000     0.0000000     0.0000000
     0.0000000     0.0000000     0.0000000     0.0000000     0.0000000     0.0000000     0.0000000

 total charge

[...]

 magnetization (x)

[...]

 magnetization (y)

[...]

 magnetization (z)

# of ion       s       p       d       tot
    1        0.000   0.000   0.000   0.000
    2        0.000  -0.000   0.000   0.000
    3       -0.000  -0.000   0.000  -0.000
    4        0.000  -0.000   0.000  -0.000
    5       -0.000   0.000   0.000  -0.000
    6       -0.000  -0.000   0.000  -0.000
    7        0.000   0.000   0.000   0.000
    8       -0.000  -0.000   0.000  -0.000
    9        0.000  -0.000   0.000  -0.000
   10        0.000   0.000   0.000   0.000
   11        0.000  -0.000   0.000  -0.000
   12        0.000  -0.000   0.000   0.000
   13        0.000   0.000   0.000   0.000
   14        0.000  -0.000   0.000  -0.000
   15       -0.000  -0.000   0.000  -0.000
   16        0.000   0.000   0.000   0.000
   17        0.000  -0.000   0.000   0.000
   18        0.000  -0.000   0.000  -0.000
   19       -0.000   0.000   0.000   0.000
   20       -0.000  -0.000   0.000  -0.000
   21        0.000  -0.000   0.000   0.000
   22        0.000  -0.000   0.000  -0.000
   23       -0.000  -0.000   0.000  -0.000
   24       -0.000   0.000   0.000  -0.000
   25       -0.000  -0.000  -0.000  -0.000
   26        0.000   0.001  -0.000   0.000
   27       -0.000  -0.000  -0.000  -0.000
   28        0.000   0.001  -0.000   0.000
   29        0.000  -0.000   0.000   0.000
   30       -0.000   0.000   0.000   0.000
   31       -0.000   0.000   0.000   0.000
   32        0.000  -0.000   0.000   0.000
   33       -0.000   0.000   0.000   0.000
   34       -0.000   0.000  -0.000   0.000
   35       -0.000   0.001  -0.000   0.000
   36        0.000  -0.001  -0.000  -0.001
   37        0.000  -0.001  -0.000  -0.001
   38       -0.000   0.001  -0.000   0.000
   39       -0.000   0.000  -0.000   0.000
   40       -0.000   0.000   0.000   0.000
   41       -0.000   0.000  -0.000   0.000
   42       -0.000   0.000   0.000   0.000
   43       -0.000   0.000  -0.000   0.000
   44       -0.000   0.000   0.000   0.000
   45        0.000   0.000   0.000   0.000
   46       -0.000   0.000   0.000   0.000
   47       -0.000   0.000   0.000   0.000
   48        0.000   0.000   0.000   0.000
tot         -0.000   0.002  -0.000   0.001